NAME        semi_continuous
ROWS
 N  Obj
 L  HiGHS_R0
 G  HiGHS_R1
COLUMNS
    MARK0000  'MARKER'                 'INTORG'
    b_5829890_x2  Obj       1
    b_5829890_x2  HiGHS_R0  -2
    MARK0001  'MARKER'                 'INTEND'
    b_5880854_x2  Obj       1
    b_5880854_x2  HiGHS_R1  1
    MARK0002  'MARKER'                 'INTORG'
    b_5829890_x1  HiGHS_R0  2
    MARK0003  'MARKER'                 'INTEND'
    b_5880854_x1  HiGHS_R1  -1
    x1        Obj       0
    x2        Obj       0
    x3        Obj       0
RHS
    RHS_V     HiGHS_R0  -64
    RHS_V     HiGHS_R1  32
BOUNDS
 LI BOUND     b_5829890_x2  1014
 UI BOUND     b_5829890_x2  1917
 LO BOUND     b_5880854_x2  1014
 SI BOUND     b_5880854_x2  1917
 LI BOUND     b_5829890_x1  10
 UI BOUND     b_5829890_x1  1
 UP BOUND     b_5880854_x1  10
 LO BOUND     x1        0
 SC BOUND     x1        1e+30
 LO BOUND     x2        0
 SC BOUND     x2        1e+30
 LO BOUND     x3        0
 SC BOUND     x3        1e+30
ENDATA
